StudentsNr = 10;
InstructorsNr = 92;
DaysNr = 2;
SlotsPerDay = 10;
AvailabilitySlotsLenght = 10;
RoomNr = 2;
ProgrammNr = 2;
DegreeNr = 2;
RolesNr = 3;
CoursesNr = 5;
InstructorsProgramm = [{2}, {2}, {1}, {1}, {1}, {2}, {2}, {1, 2}, {2}, {2}, {2}, {1, 2}, {1, 2}, {1, 2}, {2}, {1}, {1, 2}, {1, 2}, {1, 2}, {2}, {1}, {2}, {2}, {1}, {1}, {1}, {1, 2}, {1, 2}, {1, 2}, {2}, {1}, {2}, {1, 2}, {2}, {2}, {1}, {1, 2}, {1, 2}, {1}, {2}, {2}, {2}, {1}, {1, 2}, {2}, {1, 2}, {1}, {1}, {1, 2}, {2}, {1}, {1}, {1}, {1, 2}, {1, 2}, {2}, {2}, {1}, {1}, {1, 2}, {1}, {1}, {1}, {2}, {1}, {1}, {2}, {2}, {1}, {1}, {1, 2}, {1}, {2}, {1}, {1}, {1, 2}, {1, 2}, {2}, {1}, {2}, {1, 2}, {2}, {2}, {1}, {2}, {2}, {2}, {1, 2}, {1}, {1, 2}, {1}, {1}];
InstructorRolesPerProgramm = [|{3, 4, 8, 13, 14, 17, 19, 26, 29, 31, 38, 46, 48, 49, 58, 59, 61, 62, 66, 70, 71, 74, 75, 77, 79, 81, 89, 90, 92}, {3, 4, 13, 19, 21, 24, 27, 28, 29, 36, 37, 46, 49, 51, 52, 59, 61, 70, 71, 74, 75, 76, 77, 84, 88, 89}, {3, 4, 8, 21, 24, 27, 31, 39, 43, 46, 48, 51, 52, 54, 60, 63, 69, 72, 76, 79, 81, 84, 88, 92}|{6, 7, 8, 13, 14, 15, 17, 19, 23, 29, 32, 35, 38, 41, 46, 49, 50, 57, 64, 67, 68, 71, 73, 77, 78, 81, 82, 86, 87, 90}, {2, 7, 13, 15, 19, 22, 23, 27, 28, 29, 32, 35, 37, 42, 46, 49, 56, 57, 67, 71, 76, 77, 78, 87, 88}, {1, 2, 8, 27, 32, 40, 46, 50, 54, 56, 60, 64, 67, 68, 76, 81, 82, 83, 85, 88}|];
InstructorsAvailability = [|1, 1, |1, 1, |1, 1, |1, 1, |1, 1, |1, 1, |1, 1, |0, 1, |1, 1, |0, 1, |1, 1, |0, 0, |0, 1, |0, 1, |0, 1, |1, 1, |1, 1, |0, 1, |0, 1, |0, 0, |1, 1, |1, 1, |1, 0, |1, 1, |0, 0, |0, 1, |1, 0, |0, 1, |1, 1, |0, 1, |1, 0, |1, 1, |1, 1, |0, 1, |1, 0, |0, 0, |1, 0, |0, 1, |0, 1, |0, 1, |0, 0, |1, 1, |1, 1, |0, 0, |1, 0, |0, 1, |1, 1, |0, 1, |0, 1, |1, 1, |1, 1, |1, 1, |0, 0, |0, 1, |0, 1, |0, 1, |1, 0, |1, 1, |0, 1, |1, 1, |0, 1, |0, 0, |0, 1, |1, 0, |1, 1, |1, 1, |0, 1, |1, 1, |0, 1, |1, 1, |0, 1, |0, 0, |0, 1, |0, 0, |0, 0, |1, 1, |1, 1, |0, 0, |0, 0, |0, 0, |1, 1, |0, 0, |0, 0, |1, 1, |0, 0, |1, 1, |1, 1, |1, 1, |1, 1, |1, 1, |1, 0, |0, 0|];
StudentsProgramm = [1, 2, 1, 2, 2, 1, 1, 1, 2, 2];
StudentsDegree = [1, 2, 2, 1, 1, 1, 2, 2, 2, 2];
StudentsSupervisorId = [14, 83, 63, 50, 28, 21, 74, 44, 49, 40];
StudentsCourseIds = [{}, {1, 2, 4, 5}, {1, 3, 4, 5}, {}, {}, {}, {1, 2, 4, 5}, {1, 3, 4, 5}, {1, 2, 4, 5}, {1, 3, 4, 5}];
StudentsAvailability = [|1, 1, |1, 1, |0, 1, |1, 1, |1, 1, |1, 1, |0, 0, |0, 0, |0, 0, |0, 1|];
TheoryticalMinCard = [0, 0, 0, 0, 0, 0, 0, 0, 0, 0];
CoursesInstructorIds = [{1, 2, 4, 5, 8, 15, 20, 24, 25, 28, 29, 30, 33, 35, 36, 42, 43, 44, 45, 49, 52, 53, 54, 56, 62, 63, 65, 67, 68, 69, 74, 76, 80, 82, 83, 87, 88, 90, 92}, {3, 4, 5, 6, 7, 9, 10, 11, 13, 16, 17, 18, 19, 20, 22, 24, 25, 27, 29, 30, 31, 33, 34, 35, 36, 38, 40, 41, 42, 43, 44, 45, 48, 50, 51, 53, 54, 55, 56, 58, 59, 67, 69, 70, 71, 73, 74, 76, 79, 80, 81, 82, 84, 86, 88, 89, 90, 91, 92}, {19, 23, 26, 32, 48, 69, 74, 80, 92}, {2, 3, 24, 25, 36, 37, 62, 63, 89}, {1, 2, 8, 10, 20, 22, 24, 25, 28, 29, 30, 31, 34, 47, 48, 50, 51, 53, 58, 61, 63, 67, 68, 69, 73, 76, 79, 81, 91}];
RolesDemands = [12, 16, 16];
RolesContinuity = [1];
ExamLen = [1, 2, 2, 1, 1, 1, 2, 2, 2, 2];
LunchTsMinLen = 0;
LunchStarts = [2..6, 13..16];
SupervisorAvailable = 0;
OptimalLunchLenght = [3, 0];
OptimalStartTs = [1, 0];
OptimalFinishTs = [0, 10];
MinimizeRooms = 0;
RolesSoftContinuity = [|1, 2, 3|4, 0, 0|];
SameDegreeInRoom = 20;
Mergeability = 1;
